966
0	116	241	312	478
0	21	41	182	246
0	92	128	403	465
21	180	253	260	379
210	419	593	599	658
0	105	244	337	432
88	193	260	390	485
220	318	370	485	580
289	508	678	687	812
97	264	386	570	710
0	41	102	445	559
203	508	582	673	741
312	498	687	748	864
599	644	744	767	803
370	673	744	870	878
